c uprop, v00.0, 
c reading from data/prog234.c.cnf
c done reading: 0.002791
p cnf 46 146
-23 -30 0
-21 -30 0
21 23 30 0
21 23 -28 0
-21 -23 -28 0
21 -23 28 0
-21 23 28 0
30 -31 0
-16 -31 0
16 -30 31 0
16 -29 -30 0
-16 -29 30 0
16 29 30 0
-16 29 -30 0
-27 31 0
-25 -27 0
25 27 -31 0
-22 25 -31 0
-22 -25 31 0
22 25 31 0
22 -25 -31 0
-19 27 0
-17 -19 0
17 19 -27 0
-15 17 -27 0
-15 -17 27 0
15 17 27 0
15 -17 -27 0
19 -26 0
-26 -33 0
-19 26 33 0
-18 -19 33 0
-18 19 -33 0
18 19 33 0
18 -19 -33 0
26 -34 0
-34 -35 0
-26 34 35 0
-26 35 -36 0
26 -35 -36 0
26 35 36 0
-26 -35 36 0
34 -37 0
-37 -38 0
-34 37 38 0
-34 38 -39 0
34 -38 -39 0
34 38 39 0
-34 -38 39 0
-23 -40 0
-21 -40 0
21 23 40 0
21 23 -41 0
-21 -23 -41 0
21 -23 41 0
-21 23 41 0
40 -42 0
-16 -42 0
16 -40 42 0
16 -40 -43 0
-16 40 -43 0
16 40 43 0
-16 -40 43 0
42 -44 0
-25 -44 0
25 -42 44 0
25 -42 -45 0
-25 42 -45 0
25 42 45 0
-25 -42 45 0
44 -46 0
-17 -46 0
17 -44 46 0
-14 17 -44 0
-14 -17 44 0
14 17 44 0
14 -17 -44 0
-13 46 0
-13 -33 0
13 33 -46 0
-12 33 -46 0
-12 -33 46 0
12 33 46 0
12 -33 -46 0
-11 13 0
-11 -35 0
11 -13 35 0
-10 -13 35 0
-10 13 -35 0
10 13 35 0
10 -13 -35 0
-9 11 0
-9 -38 0
9 -11 38 0
-8 -11 38 0
-8 11 -38 0
8 11 38 0
8 -11 -38 0
-5 7 0
-5 23 0
5 -7 -23 0
-7 23 0
7 -23 0
3 -4 -21 0
3 -4 -5 0
3 -5 -21 0
-3 4 21 0
-3 4 5 0
-3 5 21 0
-3 4 0
-3 21 0
-3 5 0
4 5 21 0
-2 6 -16 0
-2 -3 6 0
-3 6 -16 0
2 -6 16 0
2 3 -6 0
3 -6 16 0
2 -6 0
-6 16 0
3 -6 0
2 3 16 0
-1 25 0
-1 6 0
1 -6 -25 0
6 -25 0
-6 25 0
17 -20 0
1 -20 0
-1 -17 20 0
1 -17 0
-1 17 0
-24 33 0
20 -24 0
-20 24 -33 0
20 -33 0
-20 33 0
-32 35 0
24 -32 0
-24 32 -35 0
24 -35 0
-24 35 0
-32 -38 0
32 -38 0
-32 38 0
